SPARKNaCl/why3-z3/sparknacl-core.adb_467_16_range_check3_1.smt2
;; produced by z3_gnatprove.drv ;;
(set-info :smt-lib-version 2.5)
(set-info :source |VC generated by SPARK 2014|)
(set-info :category industrial)
(set-info :status unknown)
;;; generated by SMT-LIB2 driver
;;; SMT-LIB2 driver: bit-vectors, common part
;;; SMT-LIB2: integer arithmetic
(declare-datatypes ()
  ((t__ref (t__refqtmk (t__content (_ BitVec 32))))))

(declare-sort byte 0)

(declare-datatypes ()
  ((byte__init_wrapper
   (byte__init_wrapperqtmk (rec__value byte)(us_attr__init Bool)))))

(declare-sort map1 0)

(declare-datatypes ()
  ((map__ref (map__refqtmk (map__content map1)))))

;; "has_bounds"
(declare-fun has_bounds (map1
  Int
  Int) Bool)

;; "get"
(declare-fun get (map1
  Int) byte__init_wrapper)

;; "slide"
(declare-fun slide (map1
  Int
  Int) map1)

;; "slide_eq"
(assert
  (forall ((a map1) (first Int))
    (! (= (slide a first first) a) :pattern ((slide a first first)) )))

;; "slide_def"
(assert
  (forall ((a map1) (old_first Int) (new_first Int))
    (! (and
         (forall ((i Int))
           (! (= (get (slide a old_first new_first) i) (get
                                                         a
                                                         (- i (- new_first old_first)))) :pattern (
           (get
             (slide a old_first new_first)
             i)) ))
         (forall ((new_last Int))
           (! (=>
                (has_bounds a old_first (- new_last (- new_first old_first)))
                (has_bounds (slide a old_first new_first) new_first new_last)) :pattern (
           (has_bounds
             (slide a old_first new_first)
             new_first
             new_last)) ))) :pattern ((slide a old_first new_first)) )))

;; "slice"
(declare-fun slice (map1
  Int
  Int) map1)

;; "slice_eq"
(assert
  (forall ((a map1) (f Int) (l Int))
    (! (=> (has_bounds a f l) (= (slice a f l) a)) :pattern ((slice a f l)
    (has_bounds a f l)) )))

;; "slice_slice"
(assert
  (forall ((a map1) (f1 Int) (l1 Int) (f2 Int) (l2 Int))
    (! (=>
         (and (<= f1 f2) (<= l2 l1))
         (= (slice (slice a f1 l1) f2 l2) (slice a f2 l2))) :pattern (
    (slice
      (slice a f1 l1)
      f2
      l2)) )))

;; "slice_def"
(assert
  (forall ((a map1) (f Int) (l Int))
    (! (forall ((i Int))
         (! (=> (and (<= f i) (<= i l)) (= (get (slice a f l) i) (get a i))) :pattern (
         (get
           (slice a f l)
           i)) :pattern ((get a i)) )) :pattern ((slice a f l)) )))

;; "slice_has_bounds"
(assert
  (forall ((a map1) (f Int) (l Int))
    (! (has_bounds (slice a f l) f l) :pattern ((has_bounds
                                                  (slice a f l)
                                                  f
                                                  l)) )))

;; "to_rep"
(declare-fun to_rep (byte) (_ BitVec 8))

;; "of_rep"
(declare-fun of_rep ((_ BitVec 8)) byte)

;; "inversion_axiom"
(assert
  (forall ((x byte)) (! (= (of_rep (to_rep x)) x) :pattern ((to_rep x)) )))

;; "range_axiom"
(assert true)

;; "coerce_axiom"
(assert
  (forall ((x (_ BitVec 8)))
    (! (= (to_rep (of_rep x)) x) :pattern ((to_rep (of_rep x))) )))

(declare-sort map2 0)

(declare-datatypes ()
  ((map__ref1 (map__refqtmk1 (map__content1 map2)))))

;; "has_bounds"
(declare-fun has_bounds1 (map2
  Int
  Int) Bool)

;; "get"
(declare-fun get1 (map2
  Int) byte)

;; "slide"
(declare-fun slide1 (map2
  Int
  Int) map2)

;; "slide_eq"
(assert
  (forall ((a map2) (first Int))
    (! (= (slide1 a first first) a) :pattern ((slide1 a first first)) )))

;; "slide_def"
(assert
  (forall ((a map2) (old_first Int) (new_first Int))
    (! (and
         (forall ((i Int))
           (! (= (get1 (slide1 a old_first new_first) i) (get1
                                                           a
                                                           (- i (- new_first old_first)))) :pattern (
           (get1
             (slide1 a old_first new_first)
             i)) ))
         (forall ((new_last Int))
           (! (=>
                (has_bounds1
                  a
                  old_first
                  (- new_last (- new_first old_first)))
                (has_bounds1
                  (slide1 a old_first new_first)
                  new_first
                  new_last)) :pattern ((has_bounds1
                                         (slide1 a old_first new_first)
                                         new_first
                                         new_last)) ))) :pattern ((slide1
                                                                    a
                                                                    old_first
                                                                    new_first)) )))

;; "convert"
(declare-fun convert (map1) map2)

;; "convert__def"
(assert
  (forall ((a map1))
    (forall ((temp___169 Int))
      (= (to_rep (of_rep (to_rep (rec__value (get a temp___169))))) (to_rep
                                                                    (get1
                                                                    (convert
                                                                    a)
                                                                    temp___169))))))

;; "convert"
(declare-fun convert1 (map2) map1)

;; "convert__def"
(assert
  (forall ((a map2))
    (let ((b (convert1 a)))
      (forall ((temp___170 Int))
        (and
          (= (us_attr__init
               (byte__init_wrapperqtmk
                 (of_rep (to_rep (get1 a temp___170)))
                 true)) (us_attr__init (get b temp___170)))
          (= (to_rep
               (rec__value
                 (byte__init_wrapperqtmk
                   (of_rep (to_rep (get1 a temp___170)))
                   true))) (to_rep (rec__value (get b temp___170)))))))))

(declare-const x0 (_ BitVec 32))

(declare-const x1 (_ BitVec 32))

(declare-const x2 (_ BitVec 32))

(declare-const x3 (_ BitVec 32))

(declare-const x4 (_ BitVec 32))

(declare-const x5 (_ BitVec 32))

(declare-const x6 (_ BitVec 32))

(declare-const x7 (_ BitVec 32))

(declare-const x8 (_ BitVec 32))

(declare-const x9 (_ BitVec 32))

(declare-const x10 (_ BitVec 32))

(declare-const x11 (_ BitVec 32))

(declare-const x12 (_ BitVec 32))

(declare-const x13 (_ BitVec 32))

(declare-const x14 (_ BitVec 32))

(declare-const x15 (_ BitVec 32))

(declare-const y map1)

;; "y'unused"
(define-fun yqtunused () map__ref
  (map__refqtmk y))

;; "x15'unused"
(define-fun x15qtunused () t__ref
  (t__refqtmk x15))

;; "x14'unused"
(define-fun x14qtunused () t__ref
  (t__refqtmk x14))

;; "x13'unused"
(define-fun x13qtunused () t__ref
  (t__refqtmk x13))

;; "x12'unused"
(define-fun x12qtunused () t__ref
  (t__refqtmk x12))

;; "x11'unused"
(define-fun x11qtunused () t__ref
  (t__refqtmk x11))

;; "x10'unused"
(define-fun x10qtunused () t__ref
  (t__refqtmk x10))

;; "x9'unused"
(define-fun x9qtunused () t__ref
  (t__refqtmk x9))

;; "x8'unused"
(define-fun x8qtunused () t__ref
  (t__refqtmk x8))

;; "x7'unused"
(define-fun x7qtunused () t__ref
  (t__refqtmk x7))

;; "x6'unused"
(define-fun x6qtunused () t__ref
  (t__refqtmk x6))

;; "x5'unused"
(define-fun x5qtunused () t__ref
  (t__refqtmk x5))

;; "x4'unused"
(define-fun x4qtunused () t__ref
  (t__refqtmk x4))

;; "x3'unused"
(define-fun x3qtunused () t__ref
  (t__refqtmk x3))

;; "x2'unused"
(define-fun x2qtunused () t__ref
  (t__refqtmk x2))

;; "x1'unused"
(define-fun x1qtunused () t__ref
  (t__refqtmk x1))

;; "x0'unused"
(define-fun x0qtunused () t__ref
  (t__refqtmk x0))

;; "Assume"
(assert true)

;; "Assume"
(assert true)

;; "Assume"
(assert true)

;; "Assume"
(assert true)

;; "Assume"
(assert true)

;; "Assume"
(assert true)

;; "Assume"
(assert true)

;; "Assume"
(assert true)

;; "Assume"
(assert true)

;; "Assume"
(assert true)

;; "Assume"
(assert true)

;; "Assume"
(assert true)

;; "Assume"
(assert true)

;; "Assume"
(assert true)

;; "Assume"
(assert true)

;; "Assume"
(assert true)

;; "Assume"
(assert (has_bounds y 0 63))

;; "map__content'result'unused"
(define-fun map__contentqtresultqtunused () map1
  y)

;; "Assert"
(assert
  (=> (<= 0 3) (and (and (<= 0 0) (<= 0 63)) (and (<= 0 3) (<= 3 63)))))

;; "temp___1767"
(define-fun temp___1767 () map1
  (slice y 0 3))

;; "slice'result'unused"
(define-fun sliceqtresultqtunused () map1
  temp___1767)

;; "temp___1768"
(define-fun temp___1768 () map2
  (convert temp___1767))

;; "convert'result'unused"
(define-fun convertqtresultqtunused () map2
  temp___1768)

;; "param__x'unused"
(define-fun param__xqtunused () map__ref1
  (map__refqtmk1 temp___1768))

;; "map__ref'mk'result'unused"
(define-fun map__refqtmkqtresultqtunused () map__ref1
  (map__refqtmk1 temp___1768))

;; "t__content'result'unused"
(define-fun t__contentqtresultqtunused () (_ BitVec 32)
  x0)

(declare-const param__x map2)

;; "param__x'unused"
(define-fun param__xqtunused1 () map__ref1
  (map__refqtmk1 param__x))

;; "H"
(assert (has_bounds1 param__x 0 3))

;; "H"
(assert true)

;; "H"
(assert true)

;; "map__content'result'unused"
(define-fun map__contentqtresultqtunused1 () map2
  param__x)

;; "temp___1773"
(define-fun temp___1773 () map1
  (convert1 param__x))

;; "convert'result'unused"
(define-fun convertqtresultqtunused1 () map1
  temp___1773)

(declare-const usf map1)

;; "H"
(assert true)

;; "H"
(assert true)

;; "H"
(assert true)

;; "H"
(assert
  (forall ((temp___1774 Int))
    (ite (and (<= 0 temp___1774) (<= temp___1774 3))
      (= (get usf temp___1774) (get temp___1773 temp___1774))
      (= (get usf temp___1774) (get y temp___1774)))))

;; "any'result'unused"
(define-fun anyqtresultqtunused () map1
  usf)

(declare-const y1 map1)

;; "y'unused"
(define-fun yqtunused1 () map__ref
  (map__refqtmk y1))

;; "H"
(assert (= y1 usf))

;; "Assert"
(assert
  (forall ((temp___1789 Int))
    (=>
      (and (<= 0 temp___1789) (<= temp___1789 3))
      (= (us_attr__init (get (slice y1 0 3) temp___1789)) true))))

;; "map__content'result'unused"
(define-fun map__contentqtresultqtunused2 () map1
  y1)

;; "Assert"
(assert
  (=> (<= 4 7) (and (and (<= 0 4) (<= 4 63)) (and (<= 0 7) (<= 7 63)))))

;; "temp___1797"
(define-fun temp___1797 () map1
  (slice y1 4 7))

;; "slice'result'unused"
(define-fun sliceqtresultqtunused1 () map1
  temp___1797)

;; "o"
(define-fun o () map1
  (slide temp___1797 4 0))

;; "slide'result'unused"
(define-fun slideqtresultqtunused () map1
  o)

;; "temp___1798"
(define-fun temp___1798 () map2
  (convert o))

;; "convert'result'unused"
(define-fun convertqtresultqtunused2 () map2
  temp___1798)

;; "param__x'unused"
(define-fun param__xqtunused2 () map__ref1
  (map__refqtmk1 temp___1798))

;; "map__ref'mk'result'unused"
(define-fun map__refqtmkqtresultqtunused1 () map__ref1
  (map__refqtmk1 temp___1798))

;; "t__content'result'unused"
(define-fun t__contentqtresultqtunused1 () (_ BitVec 32)
  x1)

(declare-const param__x1 map2)

;; "param__x'unused"
(define-fun param__xqtunused3 () map__ref1
  (map__refqtmk1 param__x1))

;; "H"
(assert (has_bounds1 param__x1 0 3))

;; "H"
(assert true)

;; "H"
(assert true)

;; "map__content'result'unused"
(define-fun map__contentqtresultqtunused3 () map2
  param__x1)

;; "temp___1802"
(define-fun temp___1802 () map2
  (slide1 param__x1 0 4))

;; "slide'result'unused"
(define-fun slideqtresultqtunused1 () map2
  temp___1802)

;; "temp___1803"
(define-fun temp___1803 () map1
  (convert1 temp___1802))

;; "convert'result'unused"
(define-fun convertqtresultqtunused3 () map1
  temp___1803)

(declare-const usf1 map1)

;; "H"
(assert true)

;; "H"
(assert true)

;; "H"
(assert true)

;; "H"
(assert
  (forall ((temp___1804 Int))
    (ite (and (<= 4 temp___1804) (<= temp___1804 7))
      (= (get usf1 temp___1804) (get temp___1803 temp___1804))
      (= (get usf1 temp___1804) (get y1 temp___1804)))))

;; "any'result'unused"
(define-fun anyqtresultqtunused1 () map1
  usf1)

(declare-const y2 map1)

;; "y'unused"
(define-fun yqtunused2 () map__ref
  (map__refqtmk y2))

;; "H"
(assert (= y2 usf1))

;; "Assert"
(assert
  (forall ((temp___1819 Int))
    (=>
      (and (<= 0 temp___1819) (<= temp___1819 7))
      (= (us_attr__init (get (slice y2 0 7) temp___1819)) true))))

;; "map__content'result'unused"
(define-fun map__contentqtresultqtunused4 () map1
  y2)

;; "Assert"
(assert
  (=> (<= 8 11) (and (and (<= 0 8) (<= 8 63)) (and (<= 0 11) (<= 11 63)))))

;; "temp___1827"
(define-fun temp___1827 () map1
  (slice y2 8 11))

;; "slice'result'unused"
(define-fun sliceqtresultqtunused2 () map1
  temp___1827)

;; "o"
(define-fun o1 () map1
  (slide temp___1827 8 0))

;; "slide'result'unused"
(define-fun slideqtresultqtunused2 () map1
  o1)

;; "temp___1828"
(define-fun temp___1828 () map2
  (convert o1))

;; "convert'result'unused"
(define-fun convertqtresultqtunused4 () map2
  temp___1828)

;; "param__x'unused"
(define-fun param__xqtunused4 () map__ref1
  (map__refqtmk1 temp___1828))

;; "map__ref'mk'result'unused"
(define-fun map__refqtmkqtresultqtunused2 () map__ref1
  (map__refqtmk1 temp___1828))

;; "t__content'result'unused"
(define-fun t__contentqtresultqtunused2 () (_ BitVec 32)
  x2)

(declare-const param__x2 map2)

;; "param__x'unused"
(define-fun param__xqtunused5 () map__ref1
  (map__refqtmk1 param__x2))

;; "H"
(assert (has_bounds1 param__x2 0 3))

;; "H"
(assert true)

;; "H"
(assert true)

;; "map__content'result'unused"
(define-fun map__contentqtresultqtunused5 () map2
  param__x2)

;; "temp___1832"
(define-fun temp___1832 () map2
  (slide1 param__x2 0 8))

;; "slide'result'unused"
(define-fun slideqtresultqtunused3 () map2
  temp___1832)

;; "temp___1833"
(define-fun temp___1833 () map1
  (convert1 temp___1832))

;; "convert'result'unused"
(define-fun convertqtresultqtunused5 () map1
  temp___1833)

(declare-const usf2 map1)

;; "H"
(assert true)

;; "H"
(assert true)

;; "H"
(assert true)

;; "H"
(assert
  (forall ((temp___1834 Int))
    (ite (and (<= 8 temp___1834) (<= temp___1834 11))
      (= (get usf2 temp___1834) (get temp___1833 temp___1834))
      (= (get usf2 temp___1834) (get y2 temp___1834)))))

;; "any'result'unused"
(define-fun anyqtresultqtunused2 () map1
  usf2)

(declare-const y3 map1)

;; "y'unused"
(define-fun yqtunused3 () map__ref
  (map__refqtmk y3))

;; "H"
(assert (= y3 usf2))

;; "Assert"
(assert
  (forall ((temp___1849 Int))
    (=>
      (and (<= 0 temp___1849) (<= temp___1849 11))
      (= (us_attr__init (get (slice y3 0 11) temp___1849)) true))))

;; "map__content'result'unused"
(define-fun map__contentqtresultqtunused6 () map1
  y3)

;; "Assert"
(assert
  (=> (<= 12 15) (and (and (<= 0 12) (<= 12 63)) (and (<= 0 15) (<= 15 63)))))

;; "temp___1857"
(define-fun temp___1857 () map1
  (slice y3 12 15))

;; "slice'result'unused"
(define-fun sliceqtresultqtunused3 () map1
  temp___1857)

;; "o"
(define-fun o2 () map1
  (slide temp___1857 12 0))

;; "slide'result'unused"
(define-fun slideqtresultqtunused4 () map1
  o2)

;; "temp___1858"
(define-fun temp___1858 () map2
  (convert o2))

;; "convert'result'unused"
(define-fun convertqtresultqtunused6 () map2
  temp___1858)

;; "param__x'unused"
(define-fun param__xqtunused6 () map__ref1
  (map__refqtmk1 temp___1858))

;; "map__ref'mk'result'unused"
(define-fun map__refqtmkqtresultqtunused3 () map__ref1
  (map__refqtmk1 temp___1858))

;; "t__content'result'unused"
(define-fun t__contentqtresultqtunused3 () (_ BitVec 32)
  x3)

(declare-const param__x3 map2)

;; "param__x'unused"
(define-fun param__xqtunused7 () map__ref1
  (map__refqtmk1 param__x3))

;; "H"
(assert (has_bounds1 param__x3 0 3))

;; "H"
(assert true)

;; "H"
(assert true)

;; "map__content'result'unused"
(define-fun map__contentqtresultqtunused7 () map2
  param__x3)

;; "temp___1862"
(define-fun temp___1862 () map2
  (slide1 param__x3 0 12))

;; "slide'result'unused"
(define-fun slideqtresultqtunused5 () map2
  temp___1862)

;; "temp___1863"
(define-fun temp___1863 () map1
  (convert1 temp___1862))

;; "convert'result'unused"
(define-fun convertqtresultqtunused7 () map1
  temp___1863)

(declare-const usf3 map1)

;; "H"
(assert true)

;; "H"
(assert true)

;; "H"
(assert true)

;; "H"
(assert
  (forall ((temp___1864 Int))
    (ite (and (<= 12 temp___1864) (<= temp___1864 15))
      (= (get usf3 temp___1864) (get temp___1863 temp___1864))
      (= (get usf3 temp___1864) (get y3 temp___1864)))))

;; "any'result'unused"
(define-fun anyqtresultqtunused3 () map1
  usf3)

(declare-const y4 map1)

;; "y'unused"
(define-fun yqtunused4 () map__ref
  (map__refqtmk y4))

;; "H"
(assert (= y4 usf3))

;; "Assert"
(assert
  (forall ((temp___1879 Int))
    (=>
      (and (<= 0 temp___1879) (<= temp___1879 15))
      (= (us_attr__init (get (slice y4 0 15) temp___1879)) true))))

;; "map__content'result'unused"
(define-fun map__contentqtresultqtunused8 () map1
  y4)

;; "Assert"
(assert
  (=> (<= 16 19) (and (and (<= 0 16) (<= 16 63)) (and (<= 0 19) (<= 19 63)))))

;; "temp___1887"
(define-fun temp___1887 () map1
  (slice y4 16 19))

;; "slice'result'unused"
(define-fun sliceqtresultqtunused4 () map1
  temp___1887)

;; "o"
(define-fun o3 () map1
  (slide temp___1887 16 0))

;; "slide'result'unused"
(define-fun slideqtresultqtunused6 () map1
  o3)

;; "temp___1888"
(define-fun temp___1888 () map2
  (convert o3))

;; "convert'result'unused"
(define-fun convertqtresultqtunused8 () map2
  temp___1888)

;; "param__x'unused"
(define-fun param__xqtunused8 () map__ref1
  (map__refqtmk1 temp___1888))

;; "map__ref'mk'result'unused"
(define-fun map__refqtmkqtresultqtunused4 () map__ref1
  (map__refqtmk1 temp___1888))

;; "t__content'result'unused"
(define-fun t__contentqtresultqtunused4 () (_ BitVec 32)
  x4)

(declare-const param__x4 map2)

;; "param__x'unused"
(define-fun param__xqtunused9 () map__ref1
  (map__refqtmk1 param__x4))

;; "H"
(assert (has_bounds1 param__x4 0 3))

;; "H"
(assert true)

;; "H"
(assert true)

;; "map__content'result'unused"
(define-fun map__contentqtresultqtunused9 () map2
  param__x4)

;; "temp___1892"
(define-fun temp___1892 () map2
  (slide1 param__x4 0 16))

;; "slide'result'unused"
(define-fun slideqtresultqtunused7 () map2
  temp___1892)

;; "temp___1893"
(define-fun temp___1893 () map1
  (convert1 temp___1892))

;; "convert'result'unused"
(define-fun convertqtresultqtunused9 () map1
  temp___1893)

(declare-const usf4 map1)

;; "H"
(assert true)

;; "H"
(assert true)

;; "H"
(assert true)

;; "H"
(assert
  (forall ((temp___1894 Int))
    (ite (and (<= 16 temp___1894) (<= temp___1894 19))
      (= (get usf4 temp___1894) (get temp___1893 temp___1894))
      (= (get usf4 temp___1894) (get y4 temp___1894)))))

;; "any'result'unused"
(define-fun anyqtresultqtunused4 () map1
  usf4)

(declare-const y5 map1)

;; "y'unused"
(define-fun yqtunused5 () map__ref
  (map__refqtmk y5))

;; "H"
(assert (= y5 usf4))

;; "Assert"
(assert
  (forall ((temp___1909 Int))
    (=>
      (and (<= 0 temp___1909) (<= temp___1909 19))
      (= (us_attr__init (get (slice y5 0 19) temp___1909)) true))))

;; "map__content'result'unused"
(define-fun map__contentqtresultqtunused10 () map1
  y5)

;; "H"
(assert (<= 20 23))

;; Goal "def'vc"
;; File "sparknacl-core.adb", line 417, characters 0-0
(assert
  (not (<= 0 23)))

(check-sat)
